c b=2,c=713
p cnf 14 28
2 -4 0
2 -7 0
1 2 -10 0
2 -11 0
2 -13 0
-2 4 0
-2 7 0
1 -2 10 0
1 -2 11 0
1 -2 13 0
1 -3 0
1 -6 0
1 -9 0
1 -12 0
1 -14 0
-1 2 10 0
-1 2 12 0
2 -14 0
-1 -2 -10 0
-2 -12 0
-1 -2 14 0
-1 3 0
-1 6 0
-1 9 0
-1 -11 0
-1 -13 0
-5 0
-8 0
